TYPE : Vertex Cover
DIMENSION: 34
EDGE_DATA_SECTION:
0 17
0 18
1 18
1 27
1 28
2 28
2 32
3 4
3 5
3 10
3 29
3 32
4 6
4 33
5 17
5 19
5 23
5 25
6 8
6 12
6 21
7 23
7 25
7 28
8 9
8 18
9 18
10 20
10 28
10 31
11 24
11 28
11 33
12 19
12 22
12 24
12 30
13 20
13 21
14 18
14 32
15 23
15 29
16 17
16 23
16 30
17 23
17 27
17 29
17 31
17 33
18 24
18 31
18 32
19 29
20 23
20 29
21 25
22 26
24 33
25 28
25 29
-1
VERTEX_DEGREE:
2.0 3.0 2.0 5.0 3.0 5.0 4.0 3.0 3.0 2.0 4.0 3.0 5.0 2.0 2.0 2.0 3.0 8.0 8.0 3.0 4.0 3.0 2.0 6.0 4.0 5.0 1.0 2.0 6.0 6.0 2.0 3.0 4.0 4.0
VERTEX_COVER:
1 3 6 8 10 13 17 18 19 22 23 24 25 28 29 30 32 33
EOF
